c generated by sgen
p cnf 61 132
-2 -3 -4 0
-1 -3 -4 0
-1 -2 -4 0
-1 -2 -3 0
-6 -7 -8 0
-5 -7 -8 0
-5 -6 -8 0
-5 -6 -7 0
-10 -11 -12 0
-9 -11 -12 0
-9 -10 -12 0
-9 -10 -11 0
-14 -15 -16 0
-13 -15 -16 0
-13 -14 -16 0
-13 -14 -15 0
-18 -19 -20 0
-17 -19 -20 0
-17 -18 -20 0
-17 -18 -19 0
-22 -23 -24 0
-21 -23 -24 0
-21 -22 -24 0
-21 -22 -23 0
-26 -27 -28 0
-25 -27 -28 0
-25 -26 -28 0
-25 -26 -27 0
-30 -31 -32 0
-29 -31 -32 0
-29 -30 -32 0
-29 -30 -31 0
-34 -35 -36 0
-33 -35 -36 0
-33 -34 -36 0
-33 -34 -35 0
-38 -39 -40 0
-37 -39 -40 0
-37 -38 -40 0
-37 -38 -39 0
-42 -43 -44 0
-41 -43 -44 0
-41 -42 -44 0
-41 -42 -43 0
-46 -47 -48 0
-45 -47 -48 0
-45 -46 -48 0
-45 -46 -47 0
-50 -51 -52 0
-49 -51 -52 0
-49 -50 -52 0
-49 -50 -51 0
-54 -55 -56 0
-53 -55 -56 0
-53 -54 -56 0
-53 -54 -55 0
-57 -58 -59 0
-57 -58 -60 0
-57 -58 -61 0
-57 -59 -60 0
-57 -59 -61 0
-57 -60 -61 0
-58 -59 -60 0
-58 -59 -61 0
-58 -60 -61 0
-59 -60 -61 0
13 60 6 0
35 60 6 0
35 13 6 0
35 13 60 0
43 20 9 0
8 20 9 0
8 43 9 0
8 43 20 0
1 31 34 0
10 31 34 0
10 1 34 0
10 1 31 0
39 61 54 0
19 61 54 0
19 39 54 0
19 39 61 0
53 59 12 0
45 59 12 0
45 53 12 0
45 53 59 0
25 36 44 0
48 36 44 0
48 25 44 0
48 25 36 0
5 55 27 0
51 55 27 0
51 5 27 0
51 5 55 0
41 58 32 0
49 58 32 0
49 41 32 0
49 41 58 0
37 50 33 0
24 50 33 0
24 37 33 0
24 37 50 0
15 30 18 0
28 30 18 0
28 15 18 0
28 15 30 0
4 52 46 0
17 52 46 0
17 4 46 0
17 4 52 0
21 3 26 0
57 3 26 0
57 21 26 0
57 21 3 0
40 14 2 0
11 14 2 0
11 40 2 0
11 40 14 0
23 56 16 0
42 56 16 0
42 23 16 0
42 23 56 0
29 38 47 0
29 38 7 0
29 38 22 0
29 47 7 0
29 47 22 0
29 7 22 0
38 47 7 0
38 47 22 0
38 7 22 0
47 7 22 0
